%griglia rappresentata come array unidimensionale
board = [                  
 _,  _,  _,  _,  _,  _,  0,  _,  
 _,  _,  _,  0,  _,  _,  _,  _, 
 0,  0,  _,  0,  0,  _,  _,  _,
 _,  _,  _,  _,  _,  _,  0,  0, 
 _,  _,  0,  _,  _,  _,  _,  _,
];

%ogni riga rappresenta un segmento di caselle contigue
%across
segments = [|   
 1,   2,   3,  4,  5,  6|
 9,  10,  11,  0,  0,  0|
13,  14,  15, 16,  0,  0|
22,  23,  24,  0,  0,  0|
25,  26,  27, 28, 29, 30|
33,  34,   0,  0,  0,  0|
36,  37,  38, 39, 40,  0|
%down
 1,   9,   0,  0,  0,  0|
 2,  10,   0,  0,  0,  0|
 3,  11,  19, 27,  0,  0|
 5,  13,   0,  0,  0,  0|
 6,  14,  22, 30, 38,  0|
 8,  16,  24,  0,  0,  0|
15,  23,   0,  0,  0,  0|
25,  33,   0,  0,  0,  0|
26,  34,   0,  0,  0,  0|
28,  36,   0,  0,  0,  0|
29,  37,   0,  0,  0,  0|
|];

%data
solutions = {2, 7, 22, 24, 27, 33, 35, 39, 44, 56, 65, 78, 88, 91, 99, 120, 154, 220};

rows=5; 
columns=8; 
r=1;
s=15;  
maxlengthseg= 6; %massima lunghezza dei segmenti